p cnf 123 435
-2 -1 0
-2 1 0
-3 -4 -5 0
3 4 -5 0
-3 4 5 0
3 -4 5 0
7 -5 0
7 6 0
5 -6 -7 0
-7 -8 -9 0
7 8 -9 0
-7 8 9 0
7 -8 9 0
2 -9 -10 0
-2 9 -10 0
2 9 10 0
-2 -9 10 0
12 4 0
12 -11 0
-4 11 -12 0
-13 14 -15 0
13 -14 -15 0
-13 -14 15 0
13 14 15 0
11 15 -16 0
-11 -15 -16 0
11 -15 16 0
-11 15 16 0
3 1 -17 0
-3 -1 -17 0
3 -1 17 0
-3 1 17 0
17 16 -18 0
-17 -16 -18 0
17 -16 18 0
-17 16 18 0
19 -16 0
19 -18 0
16 18 -19 0
-12 -19 -20 0
12 19 -20 0
-12 19 20 0
12 -19 20 0
-2 20 -21 0
2 -20 -21 0
-2 -20 21 0
2 20 21 0
-10 21 -22 0
10 -21 -22 0
-10 -21 22 0
10 21 22 0
23 13 0
23 13 0
-13 -23 0
24 -3 0
24 -2 0
3 2 -24 0
-25 -23 0
-25 24 0
23 -24 25 0
16 -13 -26 0
-16 13 -26 0
16 13 26 0
-16 -13 26 0
-25 -26 -27 0
25 26 -27 0
-25 26 27 0
25 -26 27 0
-29 28 0
-29 -1 0
-28 1 29 0
30 28 0
30 -12 0
-28 12 -30 0
-31 29 0
-31 -30 0
-29 30 31 0
29 -31 -32 0
-29 31 -32 0
29 31 32 0
-29 -31 32 0
33 32 0
33 6 0
-32 -6 -33 0
-34 27 0
-34 -33 0
-27 33 34 0
-35 -22 0
-35 34 0
22 -34 35 0
-37 -36 0
-37 -4 0
36 4 37 0
-39 38 0
-39 23 0
-38 -23 39 0
40 -11 0
40 39 0
11 -39 -40 0
41 -16 0
41 -40 0
16 40 -41 0
-42 9 0
-42 -41 0
-9 41 42 0
43 37 0
43 42 0
-37 -42 -43 0
44 -36 0
44 -2 0
36 2 -44 0
45 -14 0
45 -44 0
14 44 -45 0
-46 45 0
-46 -16 0
-45 16 46 0
46 40 -47 0
-46 -40 -47 0
46 -40 47 0
-46 40 47 0
48 -47 0
48 -1 0
47 1 -48 0
-49 48 0
-49 -15 0
-48 15 49 0
-50 -1 0
-50 -49 0
1 49 50 0
-6 5 -51 0
6 -5 -51 0
-6 -5 51 0
6 5 51 0
-53 -51 0
-53 -52 0
51 52 53 0
-54 -38 0
-54 53 0
38 -53 54 0
50 -54 -55 0
-50 54 -55 0
50 54 55 0
-50 -54 55 0
56 43 0
56 55 0
-43 -55 -56 0
57 -4 0
57 51 0
4 -51 -57 0
58 -6 0
58 -11 0
6 11 -58 0
-24 58 -59 0
24 -58 -59 0
-24 -58 59 0
24 58 59 0
-59 26 -60 0
59 -26 -60 0
-59 -26 60 0
59 26 60 0
-57 -60 -61 0
57 60 -61 0
-57 60 61 0
57 -60 61 0
-62 -4 0
-62 -25 0
4 25 62 0
-63 -28 0
-63 -12 0
28 12 63 0
64 62 0
64 63 0
-62 -63 -64 0
-65 61 0
-65 -64 0
-61 64 65 0
-38 -4 -66 0
38 4 -66 0
-38 4 66 0
38 -4 66 0
-66 14 -67 0
66 -14 -67 0
-66 -14 67 0
66 14 67 0
-68 -44 0
-68 -47 0
44 47 68 0
69 67 0
69 -68 0
-67 68 -69 0
70 -65 0
70 -69 0
65 69 -70 0
-71 -24 0
-71 17 0
24 -17 71 0
-18 -72 0
18 -72 0
-73 -71 0
-73 -72 0
71 72 73 0
70 73 -74 0
-70 -73 -74 0
70 -73 74 0
-70 73 74 0
-75 56 0
-75 74 0
-56 -74 75 0
76 -35 0
76 75 0
35 -75 -76 0
-24 -2 -77 0
24 2 -77 0
-24 2 77 0
24 -2 77 0
-78 9 0
-78 -20 0
-9 20 78 0
-77 78 -79 0
77 -78 -79 0
-77 -78 79 0
77 78 79 0
-81 8 0
-81 -80 0
-8 80 81 0
23 -15 -82 0
-23 15 -82 0
23 15 82 0
-23 -15 82 0
-83 16 0
-83 25 0
-16 -25 83 0
-84 82 0
-84 -83 0
-82 83 84 0
-81 -84 -85 0
81 84 -85 0
-81 84 85 0
81 -84 85 0
-79 85 -86 0
79 -85 -86 0
-79 -85 86 0
79 85 86 0
87 -76 0
87 -86 0
76 86 -87 0
24 17 -88 0
-24 -17 -88 0
24 -17 88 0
-24 17 88 0
89 -31 0
89 -88 0
31 88 -89 0
90 89 0
90 14 0
-89 -14 -90 0
91 6 0
91 7 0
-6 -7 -91 0
-92 -90 0
-92 91 0
90 -91 92 0
-93 -38 0
-93 59 0
38 -59 93 0
-15 93 -94 0
15 -93 -94 0
-15 -93 94 0
15 93 94 0
95 92 0
95 -94 0
-92 94 -95 0
97 -9 0
97 51 0
9 -51 -97 0
98 -96 0
98 -97 0
96 97 -98 0
-99 -95 0
-99 -98 0
95 98 99 0
-100 87 0
-100 -99 0
-87 99 100 0
101 26 0
101 1 0
-26 -1 -101 0
-102 44 0
-102 88 0
-44 -88 102 0
103 13 0
103 -30 0
-13 30 -103 0
-104 102 0
-104 -103 0
-102 103 104 0
-105 93 0
-105 104 0
-93 -104 105 0
-106 -101 0
-106 105 0
101 -105 106 0
107 51 0
107 29 0
-51 -29 -107 0
-6 107 -108 0
6 -107 -108 0
-6 -107 108 0
6 107 108 0
-13 30 -109 0
13 -30 -109 0
-13 -30 109 0
13 30 109 0
-110 -108 0
-110 109 0
108 -109 110 0
111 110 0
111 58 0
-110 -58 -111 0
26 66 -112 0
-26 -66 -112 0
26 -66 112 0
-26 66 112 0
-113 -111 0
-113 -112 0
111 112 113 0
106 -113 -114 0
-106 113 -114 0
106 113 114 0
-106 -113 114 0
100 114 -115 0
-100 -114 -115 0
100 -114 115 0
-100 114 115 0
-5 39 -116 0
5 -39 -116 0
-5 -39 116 0
5 39 116 0
13 -44 -117 0
-13 44 -117 0
13 44 117 0
-13 -44 117 0
118 25 0
118 71 0
-25 -71 -118 0
119 117 0
119 -118 0
-117 118 -119 0
-120 72 0
-120 72 0
-72 120 0
-119 -120 -121 0
119 120 -121 0
-119 120 121 0
119 -120 121 0
122 116 0
122 -121 0
-116 121 -122 0
123 -115 0
123 122 0
115 -122 -123 0
72 105 -36 0
-8 -16 0
68 -82 0
56 -17 0
-90 73 0
-61 -66 27 -24 11 37 0
14 -72 -7 -46 -63 -2 0
-19 71 -102 0
-46 11 119 40 0
-42 -94 -29 0
59 -42 72 -12 0
63 -117 83 0
-10 33 0
47 -37 0
-56 70 114 0
-36 -73 0
-100 2 20 0
84 -63 116 33 -68 0
117 -118 100 -73 0
-51 111 -96 -63 0
23 -96 97 -69 120 0
112 -17 111 0
-60 29 94 -65 -24 0
75 -13 0
-95 79 55 100 -60 108 0
53 97 -110 -91 37 -81 0
-42 2 83 0
-117 -47 -68 0
-7 -26 0
-70 91 -53 -123 0
43 -29 39 23 -75 0
56 -101 18 0
-22 -32 -113 15 123 47 0
-52 102 41 5 14 -80 0
-34 -86 0
69 76 -65 -81 -99 -59 0
74 -87 0
62 -84 -4 32 -22 0
106 -12 -71 8 -13 0
18 72 -44 92 30 86 0
96 -5 32 0
-67 60 29 0
-24 90 15 120 -107 94 0
-78 -8 118 0
-109 -123 -31 0
29 70 0
-109 -103 0
49 26 0
-96 -44 -70 -14 -13 0
-122 53 60 0
-103 -112 83 -55 0
83 -43 -34 0
-27 -23 -60 -116 -41 -18 0
81 -10 -43 -9 26 65 0
-18 20 123 -56 68 0
123 -105 0
43 84 0
56 52 -100 0
-111 -59 80 0
-27 93 4 0
-41 13 0
105 -37 61 -44 -88 -90 0
80 87 83 62 19 0
-92 47 -80 -98 117 -60 0
19 -96 -100 97 -61 34 0
-71 11 0
68 97 120 69 0
-42 -85 56 36 0
105 -101 28 55 -26 0
78 -53 66 52 121 0
23 122 0
-55 -46 -82 0
123 0
